
Log started (V12.6.1.0) Mon Feb 05 23:52:39 2018

New value for time limit in seconds: 10800
New value for default parallel thread count: 1
Tried aggregator 3 times.
MIP Presolve eliminated 18122 rows and 1298 columns.
MIP Presolve modified 163 coefficients.
Aggregator did 31 substitutions.
Reduced MIP has 3765 rows, 17568 columns, and 106682 nonzeros.
Reduced MIP has 17370 binaries, 198 generals, 0 SOSs, and 0 indicators.
Presolve time = 0.19 sec. (108.33 ticks)
Probing time = 0.03 sec. (6.81 ticks)
Tried aggregator 1 time.
Reduced MIP has 3765 rows, 17568 columns, and 106682 nonzeros.
Reduced MIP has 17370 binaries, 198 generals, 0 SOSs, and 0 indicators.
Presolve time = 0.06 sec. (47.40 ticks)
Probing time = 0.02 sec. (5.90 ticks)
Clique table members: 46947.
MIP emphasis: balance optimality and feasibility.
MIP search method: dynamic search.
Parallel mode: none, using 1 thread.
Root relaxation solution time = 1.39 sec. (1139.17 ticks)

        Nodes                                         Cuts/
   Node  Left     Objective  IInf  Best Integer    Best Bound    ItCnt     Gap

      0     0       17.0000   786                     17.0000     4981         
      0     0       24.1111   467                   Fract: 15     7156         
      0     0       30.5707   483                    Cuts: 81    10540         
      0     0       30.6389   686                    Cuts: 43    11442         
      0     0       30.6389   510                    Cuts: 24    13954         
      0     0       30.6389   569                    Cuts: 37    17411         
*     0+    0                           49.0000       30.6389            37.47%
*     0+    0                           48.0000       30.6389            36.17%
      0     2       30.6389   179       48.0000       30.6389    17411   36.17%
Elapsed time = 28.45 sec. (19765.60 ticks, tree = 0.00 MB, solutions = 2)
      1     3       30.6389   231       48.0000       30.6389    19461   36.17%
      2     4       30.6389   384       48.0000       30.6389    21095   36.17%
      3     5       30.6389   375       48.0000       30.6389    23043   36.17%
      4     6       30.6389   345       48.0000       30.6389    24516   36.17%
      5     7       30.6389   337       48.0000       30.6389    25081   36.17%
      7     9       30.6389   474       48.0000       30.6389    31573   36.17%
      8    10       30.6389   331       48.0000       30.6389    32411   36.17%
      9    11       30.6389   339       48.0000       30.6389    34307   36.17%
     12    14       30.6389   290       48.0000       30.6389    35981   36.17%
     18    20       30.6389   237       48.0000       30.6389    42220   36.17%
Elapsed time = 42.72 sec. (27086.39 ticks, tree = 0.17 MB, solutions = 2)
     22    24       30.6389   437       48.0000       30.6389    63483   36.17%
     28    30       30.7778   335       48.0000       30.6389    69176   36.17%
     33    35       32.4722   330       48.0000       30.6389    72392   36.17%
     38    40       30.8722   305       48.0000       30.6389    77424   36.17%
     42    44       30.8722   365       48.0000       30.6389    81338   36.17%
     47    49       30.8722   419       48.0000       30.6389    86090   36.17%
     53    55       31.2722   556       48.0000       30.6389    89409   36.17%
     57    59       30.8722   396       48.0000       30.6389    95203   36.17%
     59    61       31.2567   409       48.0000       30.6389    98673   36.17%
     62    64       31.3722   401       48.0000       30.6389   104331   36.17%
Elapsed time = 69.69 sec. (38922.61 ticks, tree = 0.64 MB, solutions = 2)
     67    69       32.3852   359       48.0000       30.6389   107547   36.17%
     72    74       32.5063   334       48.0000       30.6389   113090   36.17%
     74    75       32.5063   340       48.0000       30.6389   118115   36.17%
     85    86       36.1648   322       48.0000       30.6389   121156   36.17%
     90    91       38.3794   284       48.0000       30.6389   123629   36.17%
     98    99       38.9675   302       48.0000       30.6389   127120   36.17%
    103   102       39.0529   330       48.0000       30.6389   130474   36.17%
    113   112       41.9243   272       48.0000       30.6389   133097   36.17%
    122   121       41.9243   265       48.0000       30.6389   134964   36.17%
    132   131       41.9243   256       48.0000       30.6389   137343   36.17%
Elapsed time = 92.17 sec. (48887.02 ticks, tree = 1.12 MB, solutions = 2)
    147   144        cutoff             48.0000       30.6389   141093   36.17%
    157   150       36.0194   276       48.0000       30.6389   146080   36.17%
    164   157       38.2694   269       48.0000       30.6389   149255   36.17%
    173   166       40.1861   265       48.0000       30.6389   151140   36.17%
    180   171       42.4396   278       48.0000       30.6389   153548   36.17%
    190   181       43.1861   239       48.0000       30.6389   155046   36.17%
    200   191       43.1861   161       48.0000       30.6389   156980   36.17%
    215   204       46.3333   110       48.0000       30.6389   159506   36.17%
    234   211       47.0000    99       48.0000       30.6389   162037   36.17%
    254   225       47.0000   133       48.0000       30.6389   164587   36.17%
Elapsed time = 112.23 sec. (58839.75 ticks, tree = 1.78 MB, solutions = 2)
    271   230       30.6389   241       48.0000       30.6389   168853   36.17%
    282   241       37.7500   278       48.0000       30.6389   171909   36.17%
    292   251       43.0000   246       48.0000       30.6389   174384   36.17%
    300   259       45.0000   246       48.0000       30.6389   176815   36.17%
    310   269       45.2000   192       48.0000       30.6389   178448   36.17%
    326   285       46.0000   147       48.0000       30.6389   180825   36.17%
    339   294       36.8125   283       48.0000       30.6389   184507   36.17%
    340   295       37.7500   338       48.0000       30.6389   184672   36.17%
    351   306       45.0000   295       48.0000       30.6389   186911   36.17%
    359   314       45.0000   156       48.0000       30.6389   187925   36.17%
Elapsed time = 140.69 sec. (71601.06 ticks, tree = 2.42 MB, solutions = 2)
    371   324       46.0000   121       48.0000       30.6389   189732   36.17%
    380   329       34.0833   294       48.0000       30.6389   193400   36.17%
    390   339       41.0000   269       48.0000       30.6389   195874   36.17%
    400   349       45.0000   197       48.0000       30.6389   198764   36.17%
    414   363       45.0625   176       48.0000       30.6389   201490   36.17%
    432   375       47.0000    83       48.0000       30.6389   206624   36.17%
    442   379       36.4583   218       48.0000       30.6389   209815   36.17%
    453   390       38.0625   212       48.0000       30.6389   213319   36.17%
    460   397       41.1250   196       48.0000       30.6389   215032   36.17%
    471   408       43.1667   193       48.0000       30.6389   218374   36.17%
Elapsed time = 163.33 sec. (82926.13 ticks, tree = 3.08 MB, solutions = 2)
*   477+  357                           47.0000       30.6389            34.81%
    478   360       30.6389   237       47.0000       30.6389   220123   34.81%
    479   361       44.8891   106       47.0000       44.8927   238108    4.48%
    480   362       44.9322   124       47.0000       44.8966   240282    4.48%
    482   364       45.0000   258       47.0000       44.8966   242395    4.48%
    483   365       45.0000   219       47.0000       44.8966   244053    4.48%
    485   305       45.0000   291       47.0000       44.8966   245880    4.48%
    487   305       45.0000   159       47.0000       44.8966   250463    4.48%
    488   306       45.0000   207       47.0000       44.8966   254522    4.48%
    490   308       45.0000   255       47.0000       44.8966   256587    4.48%
    495   284       46.0000   164       47.0000       44.8966   259002    4.48%
Elapsed time = 248.95 sec. (120293.99 ticks, tree = 2.22 MB, solutions = 3)
    499   288       46.0000   103       47.0000       44.8966   263814    4.48%
    506   291       46.0000   133       47.0000       44.8966   265664    4.48%
    512   295       46.0000   139       47.0000       44.8966   267172    4.48%
    519   300       46.0000   169       47.0000       44.8966   269159    4.48%
    525   303       46.0000   117       47.0000       44.8966   274432    4.48%
    531   307       46.0000   160       47.0000       44.8966   276845    4.48%
    540   297       46.0000   125       47.0000       44.8966   283157    4.48%
    551   283       46.0000   121       47.0000       44.8966   286008    4.48%
    561   269       45.0000    56       47.0000       45.0000   288428    4.26%
    565   271       45.0000   123       47.0000       45.0000   293491    4.26%
Elapsed time = 270.56 sec. (131206.54 ticks, tree = 2.08 MB, solutions = 3)
    568   273       45.0000    51       47.0000       45.0000   298840    4.26%
    573   277       45.0000   132       47.0000       45.0000   305975    4.26%
    577   274       46.0000    40       47.0000       45.0000   307715    4.26%
    581   276       46.0000    31       47.0000       45.0000   311049    4.26%
    587   274       46.0000    29       47.0000       45.0000   316969    4.26%
    592   278       46.0000    27       47.0000       45.0000   323940    4.26%
    596   281       46.0000    10       47.0000       45.0000   325412    4.26%
    599   283       46.0000    29       47.0000       45.0000   326111    4.26%
    606   287       46.0000    51       47.0000       45.0000   328322    4.26%
    614   288        cutoff             47.0000       45.0000   330699    4.26%
Elapsed time = 295.08 sec. (142186.02 ticks, tree = 2.19 MB, solutions = 3)
*   619+  145                           46.0000       45.0000             2.17%
    620   133       45.0000   338       46.0000       45.0000   334564    2.17%
    621   134       45.0000   293       46.0000       45.0000   336734    2.17%
    622   134       45.0000   454       46.0000       45.0000   344243    2.17%
    623   134       45.0000   437       46.0000       45.0000   344587    2.17%
    626   136       45.0000   436       46.0000       45.0000   345036    2.17%
    629   139       45.0000   484       46.0000       45.0000   347577    2.17%
    632   141       45.0000   509       46.0000       45.0000   349711    2.17%
    635   142       45.0000   529       46.0000       45.0000   352575    2.17%
    638   140       45.0000   419       46.0000       45.0000   357275    2.17%
    655   138       45.0000   127       46.0000       45.0000   370109    2.17%
Elapsed time = 348.13 sec. (161776.50 ticks, tree = 1.12 MB, solutions = 4)
    690   149       45.0000   102       46.0000       45.0000   385367    2.17%
    703   148       45.0000   409       46.0000       45.0000   396322    2.17%
    717   154       45.0000   322       46.0000       45.0000   401819    2.17%
    748   160       45.0000   125       46.0000       45.0000   411778    2.17%
    819   137       45.0000    61       46.0000       45.0000   427527    2.17%
    936   156       45.0000    60       46.0000       45.0000   439406    2.17%
   1045   168    infeasible             46.0000       45.0000   449508    2.17%
   1164   181       45.0000   107       46.0000       45.0000   462953    2.17%
   1302   188       45.0000    66       46.0000       45.0000   474764    2.17%
   1447   197       45.0000    96       46.0000       45.0000   485198    2.17%
Elapsed time = 438.61 sec. (200281.37 ticks, tree = 1.50 MB, solutions = 4)
   1593   197       45.0000    96       46.0000       45.0000   495476    2.17%
   1751   189        cutoff             46.0000       45.0000   507460    2.17%
   1879   183       45.0000   122       46.0000       45.0000   523509    2.17%
   2067   195       45.0000    79       46.0000       45.0000   534052    2.17%
   2240   213       45.0000    92       46.0000       45.0000   544015    2.17%
   2434   239    infeasible             46.0000       45.0000   552599    2.17%
   2619   266       45.0000    73       46.0000       45.0000   563591    2.17%
   2826   283    infeasible             46.0000       45.0000   574456    2.17%
   3020   265       45.0000    76       46.0000       45.0000   584536    2.17%
   3207   251    infeasible             46.0000       45.0000   595501    2.17%
Elapsed time = 515.22 sec. (238607.79 ticks, tree = 1.91 MB, solutions = 4)
   3392   244    infeasible             46.0000       45.0000   605683    2.17%
   3564   251        cutoff             46.0000       45.0000   617529    2.17%
   3739   251    infeasible             46.0000       45.0000   630449    2.17%
   3941   233       45.0000    59       46.0000       45.0000   641680    2.17%
   4106   235    infeasible             46.0000       45.0000   651799    2.17%
   4270   239    infeasible             46.0000       45.0000   662343    2.17%
   4436   228       45.0000   104       46.0000       45.0000   672314    2.17%
   4616   218       45.0000   136       46.0000       45.0000   684542    2.17%
   4762   233    infeasible             46.0000       45.0000   696911    2.17%
   4941   221       45.0000   106       46.0000       45.0000   707880    2.17%
Elapsed time = 592.14 sec. (276896.20 ticks, tree = 1.68 MB, solutions = 4)
   5123   211       45.0000    92       46.0000       45.0000   719095    2.17%
   5309   207    infeasible             46.0000       45.0000   731320    2.17%
   5489   207       45.0000    95       46.0000       45.0000   740666    2.17%
   5687   208       45.0000    79       46.0000       45.0000   750101    2.17%
   5888   198        cutoff             46.0000       45.0000   759081    2.17%
   6066   204    infeasible             46.0000       45.0000   770650    2.17%
   6196   230       45.0000    62       46.0000       45.0000   781506    2.17%
   6373   262       45.0000    97       46.0000       45.0000   791909    2.17%
   6554   261    infeasible             46.0000       45.0000   804737    2.17%
   6746   213       45.0000   113       46.0000       45.0000   817427    2.17%
Elapsed time = 671.80 sec. (315209.20 ticks, tree = 1.62 MB, solutions = 4)
   6891   214    infeasible             46.0000       45.0000   830749    2.17%
   7027   201    infeasible             46.0000       45.0000   843466    2.17%
   7146   221       45.0000   107       46.0000       45.0000   857626    2.17%
   7279   263       45.0000    67       46.0000       45.0000   866998    2.17%
   7425   256        cutoff             46.0000       45.0000   879562    2.17%
   7566   252       45.0000    80       46.0000       45.0000   891309    2.17%
   7721   248    infeasible             46.0000       45.0000   902987    2.17%
   7879   263       45.0000    60       46.0000       45.0000   914273    2.17%
   8001   259       45.0000    93       46.0000       45.0000   927599    2.17%
   8099   273       45.0000   111       46.0000       45.0000   944712    2.17%
Elapsed time = 752.58 sec. (353654.25 ticks, tree = 2.05 MB, solutions = 4)
   8179   275       45.0000    97       46.0000       45.0000   963692    2.17%
   8282   265       45.0000   136       46.0000       45.0000   982296    2.17%
   8417   289       45.0000    82       46.0000       45.0000   992225    2.17%
   8572   306       45.0000   115       46.0000       45.0000  1003423    2.17%
   8726   308       45.0000    86       46.0000       45.0000  1013148    2.17%
   8893   317       45.0000    87       46.0000       45.0000  1023550    2.17%
   9065   319       45.0000    77       46.0000       45.0000  1035816    2.17%
   9217   319    infeasible             46.0000       45.0000  1050666    2.17%
   9364   316        cutoff             46.0000       45.0000  1063400    2.17%
   9499   327    infeasible             46.0000       45.0000  1077254    2.17%
Elapsed time = 838.55 sec. (395241.96 ticks, tree = 2.45 MB, solutions = 4)
   9700   331    infeasible             46.0000       45.0000  1088031    2.17%
   9924   336       45.0000    70       46.0000       45.0000  1098572    2.17%
  10020   328       45.0000    90       46.0000       45.0000  1105927    2.17%

Clique cuts applied:  77
Mixed integer rounding cuts applied:  1
Zero-half cuts applied:  19
Lift and project cuts applied:  1
Gomory fractional cuts applied:  40

Root node processing (before b&c):
  Real time             =   27.81 sec. (19442.86 ticks)
Sequential b&c:
  Real time             =  863.42 sec. (403330.32 ticks)
                          ------------
Total (root+branch&cut) =  891.23 sec. (422773.18 ticks)

Solution pool: 4 solutions saved.

MIP - Integer optimal solution:  Objective = 4.6000000000e+001
Solution time =  891.25 sec.  Iterations = 1108834  Nodes = 10021
Deterministic time = 422773.23 ticks  (474.36 ticks/sec)


Incumbent solution written to file 'Casey-1k.sol'.
